NAME : rnd71_20.tsp
TYPE : TSP
DIMENSION : 20
EDGE_WEIGHT_TYPE : EUC_2D
NODE_COORD_SECTION
0 804 716
1 769 658
2 445 548
3 976 264
4 777 164
5 120 741
6 642 442
7 139 645
8 496 436
9 763 372
10 415 901
11 798 722
12 2 930
13 38 401
14 963 266
15 344 878
16 584 246
17 769 938
18 499 440
19 964 289
